\ Model planning
\ LP format - for model browsing. Use MPS format to capture full model detail.
Minimize
  0 ax15 + 0 ay15 + 0 az15 + 0 bx15 + 0 by15 + 0 bz15 + 0 cx15 + 0 cy15
   + 0 cz15 + 0 dx15 + 0 dy15 + 0 dz15 + [ 72 ax0 ^2 + 72 ay0 ^2
   + 72 az0 ^2 + 72 ax1 ^2 + 72 ay1 ^2 + 72 az1 ^2 + 72 ax2 ^2 + 72 ay2 ^2
   + 72 az2 ^2 + 72 ax3 ^2 + 72 ay3 ^2 + 72 az3 ^2 + 72 ax4 ^2 + 72 ay4 ^2
   + 72 az4 ^2 + 72 ax5 ^2 + 72 ay5 ^2 + 72 az5 ^2 + 72 ax6 ^2 + 72 ay6 ^2
   + 72 az6 ^2 + 72 ax7 ^2 + 72 ay7 ^2 + 72 az7 ^2 + 72 ax8 ^2 + 72 ay8 ^2
   + 72 az8 ^2 + 72 ax9 ^2 + 72 ay9 ^2 + 72 az9 ^2 + 72 ax10 ^2
   + 72 ay10 ^2 + 72 az10 ^2 + 72 ax11 ^2 + 72 ay11 ^2 + 72 az11 ^2
   + 72 ax12 ^2 + 72 ay12 ^2 + 72 az12 ^2 + 72 ax13 ^2 + 72 ay13 ^2
   + 72 az13 ^2 + 72 ax14 ^2 + 72 ay14 ^2 + 72 az14 ^2 ] / 2 
Subject To
 R0: 0.001 ax0 + 0.01 bx0 + 0.1 cx0 + dx0 - dx1 = 0
 R1: 0.03 ax0 + 0.2 bx0 + cx0 - cx1 = 0
 R2: 0.6 ax0 + 2 bx0 - 2 bx1 = 0
 R3: 0.001 ay0 + 0.01 by0 + 0.1 cy0 + dy0 - dy1 = 0
 R4: 0.03 ay0 + 0.2 by0 + cy0 - cy1 = 0
 R5: 0.6 ay0 + 2 by0 - 2 by1 = 0
 R6: 0.001 az0 + 0.01 bz0 + 0.1 cz0 + dz0 - dz1 = 0
 R7: 0.03 az0 + 0.2 bz0 + cz0 - cz1 = 0
 R8: 0.6 az0 + 2 bz0 - 2 bz1 = 0
 R9: 0.001 ax1 + 0.01 bx1 + 0.1 cx1 + dx1 - dx2 = 0
 R10: 0.03 ax1 + 0.2 bx1 + cx1 - cx2 = 0
 R11: 0.6 ax1 + 2 bx1 - 2 bx2 = 0
 R12: 0.001 ay1 + 0.01 by1 + 0.1 cy1 + dy1 - dy2 = 0
 R13: 0.03 ay1 + 0.2 by1 + cy1 - cy2 = 0
 R14: 0.6 ay1 + 2 by1 - 2 by2 = 0
 R15: 0.001 az1 + 0.01 bz1 + 0.1 cz1 + dz1 - dz2 = 0
 R16: 0.03 az1 + 0.2 bz1 + cz1 - cz2 = 0
 R17: 0.6 az1 + 2 bz1 - 2 bz2 = 0
 R18: 0.001 ax2 + 0.01 bx2 + 0.1 cx2 + dx2 - dx3 = 0
 R19: 0.03 ax2 + 0.2 bx2 + cx2 - cx3 = 0
 R20: 0.6 ax2 + 2 bx2 - 2 bx3 = 0
 R21: 0.001 ay2 + 0.01 by2 + 0.1 cy2 + dy2 - dy3 = 0
 R22: 0.03 ay2 + 0.2 by2 + cy2 - cy3 = 0
 R23: 0.6 ay2 + 2 by2 - 2 by3 = 0
 R24: 0.001 az2 + 0.01 bz2 + 0.1 cz2 + dz2 - dz3 = 0
 R25: 0.03 az2 + 0.2 bz2 + cz2 - cz3 = 0
 R26: 0.6 az2 + 2 bz2 - 2 bz3 = 0
 R27: 0.001 ax3 + 0.01 bx3 + 0.1 cx3 + dx3 - dx4 = 0
 R28: 0.03 ax3 + 0.2 bx3 + cx3 - cx4 = 0
 R29: 0.6 ax3 + 2 bx3 - 2 bx4 = 0
 R30: 0.001 ay3 + 0.01 by3 + 0.1 cy3 + dy3 - dy4 = 0
 R31: 0.03 ay3 + 0.2 by3 + cy3 - cy4 = 0
 R32: 0.6 ay3 + 2 by3 - 2 by4 = 0
 R33: 0.001 az3 + 0.01 bz3 + 0.1 cz3 + dz3 - dz4 = 0
 R34: 0.03 az3 + 0.2 bz3 + cz3 - cz4 = 0
 R35: 0.6 az3 + 2 bz3 - 2 bz4 = 0
 R36: 0.001 ax4 + 0.01 bx4 + 0.1 cx4 + dx4 - dx5 = 0
 R37: 0.03 ax4 + 0.2 bx4 + cx4 - cx5 = 0
 R38: 0.6 ax4 + 2 bx4 - 2 bx5 = 0
 R39: 0.001 ay4 + 0.01 by4 + 0.1 cy4 + dy4 - dy5 = 0
 R40: 0.03 ay4 + 0.2 by4 + cy4 - cy5 = 0
 R41: 0.6 ay4 + 2 by4 - 2 by5 = 0
 R42: 0.001 az4 + 0.01 bz4 + 0.1 cz4 + dz4 - dz5 = 0
 R43: 0.03 az4 + 0.2 bz4 + cz4 - cz5 = 0
 R44: 0.6 az4 + 2 bz4 - 2 bz5 = 0
 R45: 0.001 ax5 + 0.01 bx5 + 0.1 cx5 + dx5 - dx6 = 0
 R46: 0.03 ax5 + 0.2 bx5 + cx5 - cx6 = 0
 R47: 0.6 ax5 + 2 bx5 - 2 bx6 = 0
 R48: 0.001 ay5 + 0.01 by5 + 0.1 cy5 + dy5 - dy6 = 0
 R49: 0.03 ay5 + 0.2 by5 + cy5 - cy6 = 0
 R50: 0.6 ay5 + 2 by5 - 2 by6 = 0
 R51: 0.001 az5 + 0.01 bz5 + 0.1 cz5 + dz5 - dz6 = 0
 R52: 0.03 az5 + 0.2 bz5 + cz5 - cz6 = 0
 R53: 0.6 az5 + 2 bz5 - 2 bz6 = 0
 R54: 0.001 ax6 + 0.01 bx6 + 0.1 cx6 + dx6 - dx7 = 0
 R55: 0.03 ax6 + 0.2 bx6 + cx6 - cx7 = 0
 R56: 0.6 ax6 + 2 bx6 - 2 bx7 = 0
 R57: 0.001 ay6 + 0.01 by6 + 0.1 cy6 + dy6 - dy7 = 0
 R58: 0.03 ay6 + 0.2 by6 + cy6 - cy7 = 0
 R59: 0.6 ay6 + 2 by6 - 2 by7 = 0
 R60: 0.001 az6 + 0.01 bz6 + 0.1 cz6 + dz6 - dz7 = 0
 R61: 0.03 az6 + 0.2 bz6 + cz6 - cz7 = 0
 R62: 0.6 az6 + 2 bz6 - 2 bz7 = 0
 R63: 0.001 ax7 + 0.01 bx7 + 0.1 cx7 + dx7 - dx8 = 0
 R64: 0.03 ax7 + 0.2 bx7 + cx7 - cx8 = 0
 R65: 0.6 ax7 + 2 bx7 - 2 bx8 = 0
 R66: 0.001 ay7 + 0.01 by7 + 0.1 cy7 + dy7 - dy8 = 0
 R67: 0.03 ay7 + 0.2 by7 + cy7 - cy8 = 0
 R68: 0.6 ay7 + 2 by7 - 2 by8 = 0
 R69: 0.001 az7 + 0.01 bz7 + 0.1 cz7 + dz7 - dz8 = 0
 R70: 0.03 az7 + 0.2 bz7 + cz7 - cz8 = 0
 R71: 0.6 az7 + 2 bz7 - 2 bz8 = 0
 R72: 0.001 ax8 + 0.01 bx8 + 0.1 cx8 + dx8 - dx9 = 0
 R73: 0.03 ax8 + 0.2 bx8 + cx8 - cx9 = 0
 R74: 0.6 ax8 + 2 bx8 - 2 bx9 = 0
 R75: 0.001 ay8 + 0.01 by8 + 0.1 cy8 + dy8 - dy9 = 0
 R76: 0.03 ay8 + 0.2 by8 + cy8 - cy9 = 0
 R77: 0.6 ay8 + 2 by8 - 2 by9 = 0
 R78: 0.001 az8 + 0.01 bz8 + 0.1 cz8 + dz8 - dz9 = 0
 R79: 0.03 az8 + 0.2 bz8 + cz8 - cz9 = 0
 R80: 0.6 az8 + 2 bz8 - 2 bz9 = 0
 R81: 0.001 ax9 + 0.01 bx9 + 0.1 cx9 + dx9 - dx10 = 0
 R82: 0.03 ax9 + 0.2 bx9 + cx9 - cx10 = 0
 R83: 0.6 ax9 + 2 bx9 - 2 bx10 = 0
 R84: 0.001 ay9 + 0.01 by9 + 0.1 cy9 + dy9 - dy10 = 0
 R85: 0.03 ay9 + 0.2 by9 + cy9 - cy10 = 0
 R86: 0.6 ay9 + 2 by9 - 2 by10 = 0
 R87: 0.001 az9 + 0.01 bz9 + 0.1 cz9 + dz9 - dz10 = 0
 R88: 0.03 az9 + 0.2 bz9 + cz9 - cz10 = 0
 R89: 0.6 az9 + 2 bz9 - 2 bz10 = 0
 R90: 0.001 ax10 + 0.01 bx10 + 0.1 cx10 + dx10 - dx11 = 0
 R91: 0.03 ax10 + 0.2 bx10 + cx10 - cx11 = 0
 R92: 0.6 ax10 + 2 bx10 - 2 bx11 = 0
 R93: 0.001 ay10 + 0.01 by10 + 0.1 cy10 + dy10 - dy11 = 0
 R94: 0.03 ay10 + 0.2 by10 + cy10 - cy11 = 0
 R95: 0.6 ay10 + 2 by10 - 2 by11 = 0
 R96: 0.001 az10 + 0.01 bz10 + 0.1 cz10 + dz10 - dz11 = 0
 R97: 0.03 az10 + 0.2 bz10 + cz10 - cz11 = 0
 R98: 0.6 az10 + 2 bz10 - 2 bz11 = 0
 R99: 0.001 ax11 + 0.01 bx11 + 0.1 cx11 + dx11 - dx12 = 0
 R100: 0.03 ax11 + 0.2 bx11 + cx11 - cx12 = 0
 R101: 0.6 ax11 + 2 bx11 - 2 bx12 = 0
 R102: 0.001 ay11 + 0.01 by11 + 0.1 cy11 + dy11 - dy12 = 0
 R103: 0.03 ay11 + 0.2 by11 + cy11 - cy12 = 0
 R104: 0.6 ay11 + 2 by11 - 2 by12 = 0
 R105: 0.001 az11 + 0.01 bz11 + 0.1 cz11 + dz11 - dz12 = 0
 R106: 0.03 az11 + 0.2 bz11 + cz11 - cz12 = 0
 R107: 0.6 az11 + 2 bz11 - 2 bz12 = 0
 R108: 0.001 ax12 + 0.01 bx12 + 0.1 cx12 + dx12 - dx13 = 0
 R109: 0.03 ax12 + 0.2 bx12 + cx12 - cx13 = 0
 R110: 0.6 ax12 + 2 bx12 - 2 bx13 = 0
 R111: 0.001 ay12 + 0.01 by12 + 0.1 cy12 + dy12 - dy13 = 0
 R112: 0.03 ay12 + 0.2 by12 + cy12 - cy13 = 0
 R113: 0.6 ay12 + 2 by12 - 2 by13 = 0
 R114: 0.001 az12 + 0.01 bz12 + 0.1 cz12 + dz12 - dz13 = 0
 R115: 0.03 az12 + 0.2 bz12 + cz12 - cz13 = 0
 R116: 0.6 az12 + 2 bz12 - 2 bz13 = 0
 R117: 0.001 ax13 + 0.01 bx13 + 0.1 cx13 + dx13 - dx14 = 0
 R118: 0.03 ax13 + 0.2 bx13 + cx13 - cx14 = 0
 R119: 0.6 ax13 + 2 bx13 - 2 bx14 = 0
 R120: 0.001 ay13 + 0.01 by13 + 0.1 cy13 + dy13 - dy14 = 0
 R121: 0.03 ay13 + 0.2 by13 + cy13 - cy14 = 0
 R122: 0.6 ay13 + 2 by13 - 2 by14 = 0
 R123: 0.001 az13 + 0.01 bz13 + 0.1 cz13 + dz13 - dz14 = 0
 R124: 0.03 az13 + 0.2 bz13 + cz13 - cz14 = 0
 R125: 0.6 az13 + 2 bz13 - 2 bz14 = 0
 R126: dx0 = -0.00669188982373311
 R127: cx0 = 0
 R128: 2 bx0 = 0
 R129: dy0 = -0.0811775129763148
 R130: cy0 = 0
 R131: 2 by0 = 0
 R132: dz0 = 1.481478307355619
 R133: cz0 = 0
 R134: 2 bz0 = 0
 R135: 0.001 ax14 + 0.01 bx14 + 0.1 cx14 + dx14 = -0.00669188982373311
 R136: 0.03 ax14 + 0.2 bx14 + cx14 = 0
 R137: 0.6 ax14 + 2 bx14 = 0
 R138: 0.001 ay14 + 0.01 by14 + 0.1 cy14 + dy14 = -0.0811775129763148
 R139: 0.03 ay14 + 0.2 by14 + cy14 = 0
 R140: 0.6 ay14 + 2 by14 = 0
 R141: 0.001 az14 + 0.01 bz14 + 0.1 cz14 + dz14 = 1.481478307355619
 R142: 0.03 az14 + 0.2 bz14 + cz14 = 0
 R143: 0.6 az14 + 2 bz14 = 0
 R144: 0.001 ax0 + 0.01 bx0 + 0.1 cx0 + dx0 <= 100
 R145: 0.001 ax0 + 0.01 bx0 + 0.1 cx0 + dx0 >= -100
 R146: 0.03 ax0 + 0.2 bx0 + cx0 <= 50
 R147: 0.03 ax0 + 0.2 bx0 + cx0 >= -50
 R148: 0.6 ax0 + 2 bx0 <= 30
 R149: 0.6 ax0 + 2 bx0 >= -30
 R150: 6 ax0 <= 500
 R151: 6 ax0 >= -500
 R152: 0.001 ay0 + 0.01 by0 + 0.1 cy0 + dy0 <= 100
 R153: 0.001 ay0 + 0.01 by0 + 0.1 cy0 + dy0 >= -100
 R154: 0.03 ay0 + 0.2 by0 + cy0 <= 50
 R155: 0.03 ay0 + 0.2 by0 + cy0 >= -50
 R156: 0.6 ay0 + 2 by0 <= 30
 R157: 0.6 ay0 + 2 by0 >= -30
 R158: 6 ay0 <= 500
 R159: 6 ay0 >= -500
 R160: 0.001 az0 + 0.01 bz0 + 0.1 cz0 + dz0 <= 100
 R161: 0.001 az0 + 0.01 bz0 + 0.1 cz0 + dz0 >= -100
 R162: 0.03 az0 + 0.2 bz0 + cz0 <= 50
 R163: 0.03 az0 + 0.2 bz0 + cz0 >= -50
 R164: 0.6 az0 + 2 bz0 <= 30
 R165: 0.6 az0 + 2 bz0 >= -30
 R166: 6 az0 <= 500
 R167: 6 az0 >= -500
 R168: 0.001 ax1 + 0.01 bx1 + 0.1 cx1 + dx1 <= 100
 R169: 0.001 ax1 + 0.01 bx1 + 0.1 cx1 + dx1 >= -100
 R170: 0.03 ax1 + 0.2 bx1 + cx1 <= 50
 R171: 0.03 ax1 + 0.2 bx1 + cx1 >= -50
 R172: 0.6 ax1 + 2 bx1 <= 30
 R173: 0.6 ax1 + 2 bx1 >= -30
 R174: 6 ax1 <= 500
 R175: 6 ax1 >= -500
 R176: 0.001 ay1 + 0.01 by1 + 0.1 cy1 + dy1 <= 100
 R177: 0.001 ay1 + 0.01 by1 + 0.1 cy1 + dy1 >= -100
 R178: 0.03 ay1 + 0.2 by1 + cy1 <= 50
 R179: 0.03 ay1 + 0.2 by1 + cy1 >= -50
 R180: 0.6 ay1 + 2 by1 <= 30
 R181: 0.6 ay1 + 2 by1 >= -30
 R182: 6 ay1 <= 500
 R183: 6 ay1 >= -500
 R184: 0.001 az1 + 0.01 bz1 + 0.1 cz1 + dz1 <= 100
 R185: 0.001 az1 + 0.01 bz1 + 0.1 cz1 + dz1 >= -100
 R186: 0.03 az1 + 0.2 bz1 + cz1 <= 50
 R187: 0.03 az1 + 0.2 bz1 + cz1 >= -50
 R188: 0.6 az1 + 2 bz1 <= 30
 R189: 0.6 az1 + 2 bz1 >= -30
 R190: 6 az1 <= 500
 R191: 6 az1 >= -500
 R192: 0.001 ax2 + 0.01 bx2 + 0.1 cx2 + dx2 <= 100
 R193: 0.001 ax2 + 0.01 bx2 + 0.1 cx2 + dx2 >= -100
 R194: 0.03 ax2 + 0.2 bx2 + cx2 <= 50
 R195: 0.03 ax2 + 0.2 bx2 + cx2 >= -50
 R196: 0.6 ax2 + 2 bx2 <= 30
 R197: 0.6 ax2 + 2 bx2 >= -30
 R198: 6 ax2 <= 500
 R199: 6 ax2 >= -500
 R200: 0.001 ay2 + 0.01 by2 + 0.1 cy2 + dy2 <= 100
 R201: 0.001 ay2 + 0.01 by2 + 0.1 cy2 + dy2 >= -100
 R202: 0.03 ay2 + 0.2 by2 + cy2 <= 50
 R203: 0.03 ay2 + 0.2 by2 + cy2 >= -50
 R204: 0.6 ay2 + 2 by2 <= 30
 R205: 0.6 ay2 + 2 by2 >= -30
 R206: 6 ay2 <= 500
 R207: 6 ay2 >= -500
 R208: 0.001 az2 + 0.01 bz2 + 0.1 cz2 + dz2 <= 100
 R209: 0.001 az2 + 0.01 bz2 + 0.1 cz2 + dz2 >= -100
 R210: 0.03 az2 + 0.2 bz2 + cz2 <= 50
 R211: 0.03 az2 + 0.2 bz2 + cz2 >= -50
 R212: 0.6 az2 + 2 bz2 <= 30
 R213: 0.6 az2 + 2 bz2 >= -30
 R214: 6 az2 <= 500
 R215: 6 az2 >= -500
 R216: 0.001 ax3 + 0.01 bx3 + 0.1 cx3 + dx3 <= 100
 R217: 0.001 ax3 + 0.01 bx3 + 0.1 cx3 + dx3 >= -100
 R218: 0.03 ax3 + 0.2 bx3 + cx3 <= 50
 R219: 0.03 ax3 + 0.2 bx3 + cx3 >= -50
 R220: 0.6 ax3 + 2 bx3 <= 30
 R221: 0.6 ax3 + 2 bx3 >= -30
 R222: 6 ax3 <= 500
 R223: 6 ax3 >= -500
 R224: 0.001 ay3 + 0.01 by3 + 0.1 cy3 + dy3 <= 100
 R225: 0.001 ay3 + 0.01 by3 + 0.1 cy3 + dy3 >= -100
 R226: 0.03 ay3 + 0.2 by3 + cy3 <= 50
 R227: 0.03 ay3 + 0.2 by3 + cy3 >= -50
 R228: 0.6 ay3 + 2 by3 <= 30
 R229: 0.6 ay3 + 2 by3 >= -30
 R230: 6 ay3 <= 500
 R231: 6 ay3 >= -500
 R232: 0.001 az3 + 0.01 bz3 + 0.1 cz3 + dz3 <= 100
 R233: 0.001 az3 + 0.01 bz3 + 0.1 cz3 + dz3 >= -100
 R234: 0.03 az3 + 0.2 bz3 + cz3 <= 50
 R235: 0.03 az3 + 0.2 bz3 + cz3 >= -50
 R236: 0.6 az3 + 2 bz3 <= 30
 R237: 0.6 az3 + 2 bz3 >= -30
 R238: 6 az3 <= 500
 R239: 6 az3 >= -500
 R240: 0.001 ax4 + 0.01 bx4 + 0.1 cx4 + dx4 <= 100
 R241: 0.001 ax4 + 0.01 bx4 + 0.1 cx4 + dx4 >= -100
 R242: 0.03 ax4 + 0.2 bx4 + cx4 <= 50
 R243: 0.03 ax4 + 0.2 bx4 + cx4 >= -50
 R244: 0.6 ax4 + 2 bx4 <= 30
 R245: 0.6 ax4 + 2 bx4 >= -30
 R246: 6 ax4 <= 500
 R247: 6 ax4 >= -500
 R248: 0.001 ay4 + 0.01 by4 + 0.1 cy4 + dy4 <= 100
 R249: 0.001 ay4 + 0.01 by4 + 0.1 cy4 + dy4 >= -100
 R250: 0.03 ay4 + 0.2 by4 + cy4 <= 50
 R251: 0.03 ay4 + 0.2 by4 + cy4 >= -50
 R252: 0.6 ay4 + 2 by4 <= 30
 R253: 0.6 ay4 + 2 by4 >= -30
 R254: 6 ay4 <= 500
 R255: 6 ay4 >= -500
 R256: 0.001 az4 + 0.01 bz4 + 0.1 cz4 + dz4 <= 100
 R257: 0.001 az4 + 0.01 bz4 + 0.1 cz4 + dz4 >= -100
 R258: 0.03 az4 + 0.2 bz4 + cz4 <= 50
 R259: 0.03 az4 + 0.2 bz4 + cz4 >= -50
 R260: 0.6 az4 + 2 bz4 <= 30
 R261: 0.6 az4 + 2 bz4 >= -30
 R262: 6 az4 <= 500
 R263: 6 az4 >= -500
 R264: 0.001 ax5 + 0.01 bx5 + 0.1 cx5 + dx5 <= 100
 R265: 0.001 ax5 + 0.01 bx5 + 0.1 cx5 + dx5 >= -100
 R266: 0.03 ax5 + 0.2 bx5 + cx5 <= 50
 R267: 0.03 ax5 + 0.2 bx5 + cx5 >= -50
 R268: 0.6 ax5 + 2 bx5 <= 30
 R269: 0.6 ax5 + 2 bx5 >= -30
 R270: 6 ax5 <= 500
 R271: 6 ax5 >= -500
 R272: 0.001 ay5 + 0.01 by5 + 0.1 cy5 + dy5 <= 100
 R273: 0.001 ay5 + 0.01 by5 + 0.1 cy5 + dy5 >= -100
 R274: 0.03 ay5 + 0.2 by5 + cy5 <= 50
 R275: 0.03 ay5 + 0.2 by5 + cy5 >= -50
 R276: 0.6 ay5 + 2 by5 <= 30
 R277: 0.6 ay5 + 2 by5 >= -30
 R278: 6 ay5 <= 500
 R279: 6 ay5 >= -500
 R280: 0.001 az5 + 0.01 bz5 + 0.1 cz5 + dz5 <= 100
 R281: 0.001 az5 + 0.01 bz5 + 0.1 cz5 + dz5 >= -100
 R282: 0.03 az5 + 0.2 bz5 + cz5 <= 50
 R283: 0.03 az5 + 0.2 bz5 + cz5 >= -50
 R284: 0.6 az5 + 2 bz5 <= 30
 R285: 0.6 az5 + 2 bz5 >= -30
 R286: 6 az5 <= 500
 R287: 6 az5 >= -500
 R288: 0.001 ax6 + 0.01 bx6 + 0.1 cx6 + dx6 <= 100
 R289: 0.001 ax6 + 0.01 bx6 + 0.1 cx6 + dx6 >= -100
 R290: 0.03 ax6 + 0.2 bx6 + cx6 <= 50
 R291: 0.03 ax6 + 0.2 bx6 + cx6 >= -50
 R292: 0.6 ax6 + 2 bx6 <= 30
 R293: 0.6 ax6 + 2 bx6 >= -30
 R294: 6 ax6 <= 500
 R295: 6 ax6 >= -500
 R296: 0.001 ay6 + 0.01 by6 + 0.1 cy6 + dy6 <= 100
 R297: 0.001 ay6 + 0.01 by6 + 0.1 cy6 + dy6 >= -100
 R298: 0.03 ay6 + 0.2 by6 + cy6 <= 50
 R299: 0.03 ay6 + 0.2 by6 + cy6 >= -50
 R300: 0.6 ay6 + 2 by6 <= 30
 R301: 0.6 ay6 + 2 by6 >= -30
 R302: 6 ay6 <= 500
 R303: 6 ay6 >= -500
 R304: 0.001 az6 + 0.01 bz6 + 0.1 cz6 + dz6 <= 100
 R305: 0.001 az6 + 0.01 bz6 + 0.1 cz6 + dz6 >= -100
 R306: 0.03 az6 + 0.2 bz6 + cz6 <= 50
 R307: 0.03 az6 + 0.2 bz6 + cz6 >= -50
 R308: 0.6 az6 + 2 bz6 <= 30
 R309: 0.6 az6 + 2 bz6 >= -30
 R310: 6 az6 <= 500
 R311: 6 az6 >= -500
 R312: 0.001 ax7 + 0.01 bx7 + 0.1 cx7 + dx7 <= 100
 R313: 0.001 ax7 + 0.01 bx7 + 0.1 cx7 + dx7 >= -100
 R314: 0.03 ax7 + 0.2 bx7 + cx7 <= 50
 R315: 0.03 ax7 + 0.2 bx7 + cx7 >= -50
 R316: 0.6 ax7 + 2 bx7 <= 30
 R317: 0.6 ax7 + 2 bx7 >= -30
 R318: 6 ax7 <= 500
 R319: 6 ax7 >= -500
 R320: 0.001 ay7 + 0.01 by7 + 0.1 cy7 + dy7 <= 100
 R321: 0.001 ay7 + 0.01 by7 + 0.1 cy7 + dy7 >= -100
 R322: 0.03 ay7 + 0.2 by7 + cy7 <= 50
 R323: 0.03 ay7 + 0.2 by7 + cy7 >= -50
 R324: 0.6 ay7 + 2 by7 <= 30
 R325: 0.6 ay7 + 2 by7 >= -30
 R326: 6 ay7 <= 500
 R327: 6 ay7 >= -500
 R328: 0.001 az7 + 0.01 bz7 + 0.1 cz7 + dz7 <= 100
 R329: 0.001 az7 + 0.01 bz7 + 0.1 cz7 + dz7 >= -100
 R330: 0.03 az7 + 0.2 bz7 + cz7 <= 50
 R331: 0.03 az7 + 0.2 bz7 + cz7 >= -50
 R332: 0.6 az7 + 2 bz7 <= 30
 R333: 0.6 az7 + 2 bz7 >= -30
 R334: 6 az7 <= 500
 R335: 6 az7 >= -500
 R336: 0.001 ax8 + 0.01 bx8 + 0.1 cx8 + dx8 <= 100
 R337: 0.001 ax8 + 0.01 bx8 + 0.1 cx8 + dx8 >= -100
 R338: 0.03 ax8 + 0.2 bx8 + cx8 <= 50
 R339: 0.03 ax8 + 0.2 bx8 + cx8 >= -50
 R340: 0.6 ax8 + 2 bx8 <= 30
 R341: 0.6 ax8 + 2 bx8 >= -30
 R342: 6 ax8 <= 500
 R343: 6 ax8 >= -500
 R344: 0.001 ay8 + 0.01 by8 + 0.1 cy8 + dy8 <= 100
 R345: 0.001 ay8 + 0.01 by8 + 0.1 cy8 + dy8 >= -100
 R346: 0.03 ay8 + 0.2 by8 + cy8 <= 50
 R347: 0.03 ay8 + 0.2 by8 + cy8 >= -50
 R348: 0.6 ay8 + 2 by8 <= 30
 R349: 0.6 ay8 + 2 by8 >= -30
 R350: 6 ay8 <= 500
 R351: 6 ay8 >= -500
 R352: 0.001 az8 + 0.01 bz8 + 0.1 cz8 + dz8 <= 100
 R353: 0.001 az8 + 0.01 bz8 + 0.1 cz8 + dz8 >= -100
 R354: 0.03 az8 + 0.2 bz8 + cz8 <= 50
 R355: 0.03 az8 + 0.2 bz8 + cz8 >= -50
 R356: 0.6 az8 + 2 bz8 <= 30
 R357: 0.6 az8 + 2 bz8 >= -30
 R358: 6 az8 <= 500
 R359: 6 az8 >= -500
 R360: 0.001 ax9 + 0.01 bx9 + 0.1 cx9 + dx9 <= 100
 R361: 0.001 ax9 + 0.01 bx9 + 0.1 cx9 + dx9 >= -100
 R362: 0.03 ax9 + 0.2 bx9 + cx9 <= 50
 R363: 0.03 ax9 + 0.2 bx9 + cx9 >= -50
 R364: 0.6 ax9 + 2 bx9 <= 30
 R365: 0.6 ax9 + 2 bx9 >= -30
 R366: 6 ax9 <= 500
 R367: 6 ax9 >= -500
 R368: 0.001 ay9 + 0.01 by9 + 0.1 cy9 + dy9 <= 100
 R369: 0.001 ay9 + 0.01 by9 + 0.1 cy9 + dy9 >= -100
 R370: 0.03 ay9 + 0.2 by9 + cy9 <= 50
 R371: 0.03 ay9 + 0.2 by9 + cy9 >= -50
 R372: 0.6 ay9 + 2 by9 <= 30
 R373: 0.6 ay9 + 2 by9 >= -30
 R374: 6 ay9 <= 500
 R375: 6 ay9 >= -500
 R376: 0.001 az9 + 0.01 bz9 + 0.1 cz9 + dz9 <= 100
 R377: 0.001 az9 + 0.01 bz9 + 0.1 cz9 + dz9 >= -100
 R378: 0.03 az9 + 0.2 bz9 + cz9 <= 50
 R379: 0.03 az9 + 0.2 bz9 + cz9 >= -50
 R380: 0.6 az9 + 2 bz9 <= 30
 R381: 0.6 az9 + 2 bz9 >= -30
 R382: 6 az9 <= 500
 R383: 6 az9 >= -500
 R384: 0.001 ax10 + 0.01 bx10 + 0.1 cx10 + dx10 <= 100
 R385: 0.001 ax10 + 0.01 bx10 + 0.1 cx10 + dx10 >= -100
 R386: 0.03 ax10 + 0.2 bx10 + cx10 <= 50
 R387: 0.03 ax10 + 0.2 bx10 + cx10 >= -50
 R388: 0.6 ax10 + 2 bx10 <= 30
 R389: 0.6 ax10 + 2 bx10 >= -30
 R390: 6 ax10 <= 500
 R391: 6 ax10 >= -500
 R392: 0.001 ay10 + 0.01 by10 + 0.1 cy10 + dy10 <= 100
 R393: 0.001 ay10 + 0.01 by10 + 0.1 cy10 + dy10 >= -100
 R394: 0.03 ay10 + 0.2 by10 + cy10 <= 50
 R395: 0.03 ay10 + 0.2 by10 + cy10 >= -50
 R396: 0.6 ay10 + 2 by10 <= 30
 R397: 0.6 ay10 + 2 by10 >= -30
 R398: 6 ay10 <= 500
 R399: 6 ay10 >= -500
 R400: 0.001 az10 + 0.01 bz10 + 0.1 cz10 + dz10 <= 100
 R401: 0.001 az10 + 0.01 bz10 + 0.1 cz10 + dz10 >= -100
 R402: 0.03 az10 + 0.2 bz10 + cz10 <= 50
 R403: 0.03 az10 + 0.2 bz10 + cz10 >= -50
 R404: 0.6 az10 + 2 bz10 <= 30
 R405: 0.6 az10 + 2 bz10 >= -30
 R406: 6 az10 <= 500
 R407: 6 az10 >= -500
 R408: 0.001 ax11 + 0.01 bx11 + 0.1 cx11 + dx11 <= 100
 R409: 0.001 ax11 + 0.01 bx11 + 0.1 cx11 + dx11 >= -100
 R410: 0.03 ax11 + 0.2 bx11 + cx11 <= 50
 R411: 0.03 ax11 + 0.2 bx11 + cx11 >= -50
 R412: 0.6 ax11 + 2 bx11 <= 30
 R413: 0.6 ax11 + 2 bx11 >= -30
 R414: 6 ax11 <= 500
 R415: 6 ax11 >= -500
 R416: 0.001 ay11 + 0.01 by11 + 0.1 cy11 + dy11 <= 100
 R417: 0.001 ay11 + 0.01 by11 + 0.1 cy11 + dy11 >= -100
 R418: 0.03 ay11 + 0.2 by11 + cy11 <= 50
 R419: 0.03 ay11 + 0.2 by11 + cy11 >= -50
 R420: 0.6 ay11 + 2 by11 <= 30
 R421: 0.6 ay11 + 2 by11 >= -30
 R422: 6 ay11 <= 500
 R423: 6 ay11 >= -500
 R424: 0.001 az11 + 0.01 bz11 + 0.1 cz11 + dz11 <= 100
 R425: 0.001 az11 + 0.01 bz11 + 0.1 cz11 + dz11 >= -100
 R426: 0.03 az11 + 0.2 bz11 + cz11 <= 50
 R427: 0.03 az11 + 0.2 bz11 + cz11 >= -50
 R428: 0.6 az11 + 2 bz11 <= 30
 R429: 0.6 az11 + 2 bz11 >= -30
 R430: 6 az11 <= 500
 R431: 6 az11 >= -500
 R432: 0.001 ax12 + 0.01 bx12 + 0.1 cx12 + dx12 <= 100
 R433: 0.001 ax12 + 0.01 bx12 + 0.1 cx12 + dx12 >= -100
 R434: 0.03 ax12 + 0.2 bx12 + cx12 <= 50
 R435: 0.03 ax12 + 0.2 bx12 + cx12 >= -50
 R436: 0.6 ax12 + 2 bx12 <= 30
 R437: 0.6 ax12 + 2 bx12 >= -30
 R438: 6 ax12 <= 500
 R439: 6 ax12 >= -500
 R440: 0.001 ay12 + 0.01 by12 + 0.1 cy12 + dy12 <= 100
 R441: 0.001 ay12 + 0.01 by12 + 0.1 cy12 + dy12 >= -100
 R442: 0.03 ay12 + 0.2 by12 + cy12 <= 50
 R443: 0.03 ay12 + 0.2 by12 + cy12 >= -50
 R444: 0.6 ay12 + 2 by12 <= 30
 R445: 0.6 ay12 + 2 by12 >= -30
 R446: 6 ay12 <= 500
 R447: 6 ay12 >= -500
 R448: 0.001 az12 + 0.01 bz12 + 0.1 cz12 + dz12 <= 100
 R449: 0.001 az12 + 0.01 bz12 + 0.1 cz12 + dz12 >= -100
 R450: 0.03 az12 + 0.2 bz12 + cz12 <= 50
 R451: 0.03 az12 + 0.2 bz12 + cz12 >= -50
 R452: 0.6 az12 + 2 bz12 <= 30
 R453: 0.6 az12 + 2 bz12 >= -30
 R454: 6 az12 <= 500
 R455: 6 az12 >= -500
 R456: 0.001 ax13 + 0.01 bx13 + 0.1 cx13 + dx13 <= 100
 R457: 0.001 ax13 + 0.01 bx13 + 0.1 cx13 + dx13 >= -100
 R458: 0.03 ax13 + 0.2 bx13 + cx13 <= 50
 R459: 0.03 ax13 + 0.2 bx13 + cx13 >= -50
 R460: 0.6 ax13 + 2 bx13 <= 30
 R461: 0.6 ax13 + 2 bx13 >= -30
 R462: 6 ax13 <= 500
 R463: 6 ax13 >= -500
 R464: 0.001 ay13 + 0.01 by13 + 0.1 cy13 + dy13 <= 100
 R465: 0.001 ay13 + 0.01 by13 + 0.1 cy13 + dy13 >= -100
 R466: 0.03 ay13 + 0.2 by13 + cy13 <= 50
 R467: 0.03 ay13 + 0.2 by13 + cy13 >= -50
 R468: 0.6 ay13 + 2 by13 <= 30
 R469: 0.6 ay13 + 2 by13 >= -30
 R470: 6 ay13 <= 500
 R471: 6 ay13 >= -500
 R472: 0.001 az13 + 0.01 bz13 + 0.1 cz13 + dz13 <= 100
 R473: 0.001 az13 + 0.01 bz13 + 0.1 cz13 + dz13 >= -100
 R474: 0.03 az13 + 0.2 bz13 + cz13 <= 50
 R475: 0.03 az13 + 0.2 bz13 + cz13 >= -50
 R476: 0.6 az13 + 2 bz13 <= 30
 R477: 0.6 az13 + 2 bz13 >= -30
 R478: 6 az13 <= 500
 R479: 6 az13 >= -500
 R480: b0_0 + b1_0 + b2_0 + b3_0 + b4_0 + b5_0 + b6_0 + b7_0 + b8_0 + b9_0
   + b10_0 + b11_0 + b12_0 + b13_0 = 1
 R481: b0_1 + b1_1 + b2_1 + b3_1 + b4_1 + b5_1 + b6_1 + b7_1 + b8_1 + b9_1
   + b10_1 + b11_1 + b12_1 + b13_1 = 1
 R482: b0_2 + b1_2 + b2_2 + b3_2 + b4_2 + b5_2 + b6_2 + b7_2 + b8_2 + b9_2
   + b10_2 + b11_2 + b12_2 + b13_2 = 1
 R483: b0_3 + b1_3 + b2_3 + b3_3 + b4_3 + b5_3 + b6_3 + b7_3 + b8_3 + b9_3
   + b10_3 + b11_3 + b12_3 + b13_3 = 1
 R484: b0_4 + b1_4 + b2_4 + b3_4 + b4_4 + b5_4 + b6_4 + b7_4 + b8_4 + b9_4
   + b10_4 + b11_4 + b12_4 + b13_4 = 1
 R485: b0_5 + b1_5 + b2_5 + b3_5 + b4_5 + b5_5 + b6_5 + b7_5 + b8_5 + b9_5
   + b10_5 + b11_5 + b12_5 + b13_5 = 1
 R486: b0_6 + b1_6 + b2_6 + b3_6 + b4_6 + b5_6 + b6_6 + b7_6 + b8_6 + b9_6
   + b10_6 + b11_6 + b12_6 + b13_6 = 1
 R487: 0.6 ay7 + 2 by7 = 0
 R488: 0.6 az7 + 2 bz7 <= -17.81
 GC0: b0_0 = 1 -> 2 by0 + 0.6 ay0 - 2 bz0 - 0.6 az0 = 0
 GC1: b0_0 = 1 -> 2 by0 + 0.6 ay0 >= 8
 GC2: b1_0 = 1 -> 2 by1 + 0.6 ay1 - 2 bz1 - 0.6 az1 = 0
 GC3: b1_0 = 1 -> 2 by1 + 0.6 ay1 >= 8
 GC4: b2_0 = 1 -> 2 by2 + 0.6 ay2 - 2 bz2 - 0.6 az2 = 0
 GC5: b2_0 = 1 -> 2 by2 + 0.6 ay2 >= 8
 GC6: b3_0 = 1 -> 2 by3 + 0.6 ay3 - 2 bz3 - 0.6 az3 = 0
 GC7: b3_0 = 1 -> 2 by3 + 0.6 ay3 >= 8
 GC8: b4_0 = 1 -> 2 by4 + 0.6 ay4 - 2 bz4 - 0.6 az4 = 0
 GC9: b4_0 = 1 -> 2 by4 + 0.6 ay4 >= 8
 GC10: b5_0 = 1 -> 2 by5 + 0.6 ay5 - 2 bz5 - 0.6 az5 = 0
 GC11: b5_0 = 1 -> 2 by5 + 0.6 ay5 >= 8
 GC12: b6_0 = 1 -> 2 by6 + 0.6 ay6 - 2 bz6 - 0.6 az6 = 0
 GC13: b6_0 = 1 -> 2 by6 + 0.6 ay6 >= 8
 GC14: b7_0 = 1 -> 2 by7 + 0.6 ay7 - 2 bz7 - 0.6 az7 = 0
 GC15: b7_0 = 1 -> 2 by7 + 0.6 ay7 >= 8
 GC16: b8_0 = 1 -> 2 by8 + 0.6 ay8 - 2 bz8 - 0.6 az8 = 0
 GC17: b8_0 = 1 -> 2 by8 + 0.6 ay8 >= 8
 GC18: b9_0 = 1 -> 2 by9 + 0.6 ay9 - 2 bz9 - 0.6 az9 = 0
 GC19: b9_0 = 1 -> 2 by9 + 0.6 ay9 >= 8
 GC20: b10_0 = 1 -> 2 by10 + 0.6 ay10 - 2 bz10 - 0.6 az10 = 0
 GC21: b10_0 = 1 -> 2 by10 + 0.6 ay10 >= 8
 GC22: b11_0 = 1 -> 2 by11 + 0.6 ay11 - 2 bz11 - 0.6 az11 = 0
 GC23: b11_0 = 1 -> 2 by11 + 0.6 ay11 >= 8
 GC24: b12_0 = 1 -> 2 by12 + 0.6 ay12 - 2 bz12 - 0.6 az12 = 0
 GC25: b12_0 = 1 -> 2 by12 + 0.6 ay12 >= 8
 GC26: b13_0 = 1 -> 2 by13 + 0.6 ay13 - 2 bz13 - 0.6 az13 = 0
 GC27: b13_0 = 1 -> 2 by13 + 0.6 ay13 >= 8
 GC28: b0_1 = 1 -> 2 by0 + 0.6 ay0 >= 8
 GC29: b0_1 = 1 -> 2 bz0 + 0.6 az0 = 0
 GC30: b1_1 = 1 -> 2 by1 + 0.6 ay1 >= 8
 GC31: b1_1 = 1 -> 2 bz1 + 0.6 az1 = 0
 GC32: b2_1 = 1 -> 2 by2 + 0.6 ay2 >= 8
 GC33: b2_1 = 1 -> 2 bz2 + 0.6 az2 = 0
 GC34: b3_1 = 1 -> 2 by3 + 0.6 ay3 >= 8
 GC35: b3_1 = 1 -> 2 bz3 + 0.6 az3 = 0
 GC36: b4_1 = 1 -> 2 by4 + 0.6 ay4 >= 8
 GC37: b4_1 = 1 -> 2 bz4 + 0.6 az4 = 0
 GC38: b5_1 = 1 -> 2 by5 + 0.6 ay5 >= 8
 GC39: b5_1 = 1 -> 2 bz5 + 0.6 az5 = 0
 GC40: b6_1 = 1 -> 2 by6 + 0.6 ay6 >= 8
 GC41: b6_1 = 1 -> 2 bz6 + 0.6 az6 = 0
 GC42: b7_1 = 1 -> 2 by7 + 0.6 ay7 >= 8
 GC43: b7_1 = 1 -> 2 bz7 + 0.6 az7 = 0
 GC44: b8_1 = 1 -> 2 by8 + 0.6 ay8 >= 8
 GC45: b8_1 = 1 -> 2 bz8 + 0.6 az8 = 0
 GC46: b9_1 = 1 -> 2 by9 + 0.6 ay9 >= 8
 GC47: b9_1 = 1 -> 2 bz9 + 0.6 az9 = 0
 GC48: b10_1 = 1 -> 2 by10 + 0.6 ay10 >= 8
 GC49: b10_1 = 1 -> 2 bz10 + 0.6 az10 = 0
 GC50: b11_1 = 1 -> 2 by11 + 0.6 ay11 >= 8
 GC51: b11_1 = 1 -> 2 bz11 + 0.6 az11 = 0
 GC52: b12_1 = 1 -> 2 by12 + 0.6 ay12 >= 8
 GC53: b12_1 = 1 -> 2 bz12 + 0.6 az12 = 0
 GC54: b13_1 = 1 -> 2 by13 + 0.6 ay13 >= 8
 GC55: b13_1 = 1 -> 2 bz13 + 0.6 az13 = 0
 GC56: b0_2 = 1 -> 2 by0 + 0.6 ay0 + 2 bz0 + 0.6 az0 = 0
 GC57: b0_2 = 1 -> 2 bz0 + 0.6 az0 <= -8
 GC58: b1_2 = 1 -> 2 by1 + 0.6 ay1 + 2 bz1 + 0.6 az1 = 0
 GC59: b1_2 = 1 -> 2 bz1 + 0.6 az1 <= -8
 GC60: b2_2 = 1 -> 2 by2 + 0.6 ay2 + 2 bz2 + 0.6 az2 = 0
 GC61: b2_2 = 1 -> 2 bz2 + 0.6 az2 <= -8
 GC62: b3_2 = 1 -> 2 by3 + 0.6 ay3 + 2 bz3 + 0.6 az3 = 0
 GC63: b3_2 = 1 -> 2 bz3 + 0.6 az3 <= -8
 GC64: b4_2 = 1 -> 2 by4 + 0.6 ay4 + 2 bz4 + 0.6 az4 = 0
 GC65: b4_2 = 1 -> 2 bz4 + 0.6 az4 <= -8
 GC66: b5_2 = 1 -> 2 by5 + 0.6 ay5 + 2 bz5 + 0.6 az5 = 0
 GC67: b5_2 = 1 -> 2 bz5 + 0.6 az5 <= -8
 GC68: b6_2 = 1 -> 2 by6 + 0.6 ay6 + 2 bz6 + 0.6 az6 = 0
 GC69: b6_2 = 1 -> 2 bz6 + 0.6 az6 <= -8
 GC70: b7_2 = 1 -> 2 by7 + 0.6 ay7 + 2 bz7 + 0.6 az7 = 0
 GC71: b7_2 = 1 -> 2 bz7 + 0.6 az7 <= -8
 GC72: b8_2 = 1 -> 2 by8 + 0.6 ay8 + 2 bz8 + 0.6 az8 = 0
 GC73: b8_2 = 1 -> 2 bz8 + 0.6 az8 <= -8
 GC74: b9_2 = 1 -> 2 by9 + 0.6 ay9 + 2 bz9 + 0.6 az9 = 0
 GC75: b9_2 = 1 -> 2 bz9 + 0.6 az9 <= -8
 GC76: b10_2 = 1 -> 2 by10 + 0.6 ay10 + 2 bz10 + 0.6 az10 = 0
 GC77: b10_2 = 1 -> 2 bz10 + 0.6 az10 <= -8
 GC78: b11_2 = 1 -> 2 by11 + 0.6 ay11 + 2 bz11 + 0.6 az11 = 0
 GC79: b11_2 = 1 -> 2 bz11 + 0.6 az11 <= -8
 GC80: b12_2 = 1 -> 2 by12 + 0.6 ay12 + 2 bz12 + 0.6 az12 = 0
 GC81: b12_2 = 1 -> 2 bz12 + 0.6 az12 <= -8
 GC82: b13_2 = 1 -> 2 by13 + 0.6 ay13 + 2 bz13 + 0.6 az13 = 0
 GC83: b13_2 = 1 -> 2 bz13 + 0.6 az13 <= -8
 GC84: b0_4 = 1 -> 2 by0 + 0.6 ay0 - 2 bz0 - 0.6 az0 = 0
 GC85: b0_4 = 1 -> 2 bz0 + 0.6 az0 <= -8
 GC86: b1_4 = 1 -> 2 by1 + 0.6 ay1 - 2 bz1 - 0.6 az1 = 0
 GC87: b1_4 = 1 -> 2 bz1 + 0.6 az1 <= -8
 GC88: b2_4 = 1 -> 2 by2 + 0.6 ay2 - 2 bz2 - 0.6 az2 = 0
 GC89: b2_4 = 1 -> 2 bz2 + 0.6 az2 <= -8
 GC90: b3_4 = 1 -> 2 by3 + 0.6 ay3 - 2 bz3 - 0.6 az3 = 0
 GC91: b3_4 = 1 -> 2 bz3 + 0.6 az3 <= -8
 GC92: b4_4 = 1 -> 2 by4 + 0.6 ay4 - 2 bz4 - 0.6 az4 = 0
 GC93: b4_4 = 1 -> 2 bz4 + 0.6 az4 <= -8
 GC94: b5_4 = 1 -> 2 by5 + 0.6 ay5 - 2 bz5 - 0.6 az5 = 0
 GC95: b5_4 = 1 -> 2 bz5 + 0.6 az5 <= -8
 GC96: b6_4 = 1 -> 2 by6 + 0.6 ay6 - 2 bz6 - 0.6 az6 = 0
 GC97: b6_4 = 1 -> 2 bz6 + 0.6 az6 <= -8
 GC98: b7_4 = 1 -> 2 by7 + 0.6 ay7 - 2 bz7 - 0.6 az7 = 0
 GC99: b7_4 = 1 -> 2 bz7 + 0.6 az7 <= -8
 GC100: b8_4 = 1 -> 2 by8 + 0.6 ay8 - 2 bz8 - 0.6 az8 = 0
 GC101: b8_4 = 1 -> 2 bz8 + 0.6 az8 <= -8
 GC102: b9_4 = 1 -> 2 by9 + 0.6 ay9 - 2 bz9 - 0.6 az9 = 0
 GC103: b9_4 = 1 -> 2 bz9 + 0.6 az9 <= -8
 GC104: b10_4 = 1 -> 2 by10 + 0.6 ay10 - 2 bz10 - 0.6 az10 = 0
 GC105: b10_4 = 1 -> 2 bz10 + 0.6 az10 <= -8
 GC106: b11_4 = 1 -> 2 by11 + 0.6 ay11 - 2 bz11 - 0.6 az11 = 0
 GC107: b11_4 = 1 -> 2 bz11 + 0.6 az11 <= -8
 GC108: b12_4 = 1 -> 2 by12 + 0.6 ay12 - 2 bz12 - 0.6 az12 = 0
 GC109: b12_4 = 1 -> 2 bz12 + 0.6 az12 <= -8
 GC110: b13_4 = 1 -> 2 by13 + 0.6 ay13 - 2 bz13 - 0.6 az13 = 0
 GC111: b13_4 = 1 -> 2 bz13 + 0.6 az13 <= -8
 GC112: b0_5 = 1 -> 2 by0 + 0.6 ay0 <= -8
 GC113: b0_5 = 1 -> 2 bz0 + 0.6 az0 = 0
 GC114: b1_5 = 1 -> 2 by1 + 0.6 ay1 <= -8
 GC115: b1_5 = 1 -> 2 bz1 + 0.6 az1 = 0
 GC116: b2_5 = 1 -> 2 by2 + 0.6 ay2 <= -8
 GC117: b2_5 = 1 -> 2 bz2 + 0.6 az2 = 0
 GC118: b3_5 = 1 -> 2 by3 + 0.6 ay3 <= -8
 GC119: b3_5 = 1 -> 2 bz3 + 0.6 az3 = 0
 GC120: b4_5 = 1 -> 2 by4 + 0.6 ay4 <= -8
 GC121: b4_5 = 1 -> 2 bz4 + 0.6 az4 = 0
 GC122: b5_5 = 1 -> 2 by5 + 0.6 ay5 <= -8
 GC123: b5_5 = 1 -> 2 bz5 + 0.6 az5 = 0
 GC124: b6_5 = 1 -> 2 by6 + 0.6 ay6 <= -8
 GC125: b6_5 = 1 -> 2 bz6 + 0.6 az6 = 0
 GC126: b7_5 = 1 -> 2 by7 + 0.6 ay7 <= -8
 GC127: b7_5 = 1 -> 2 bz7 + 0.6 az7 = 0
 GC128: b8_5 = 1 -> 2 by8 + 0.6 ay8 <= -8
 GC129: b8_5 = 1 -> 2 bz8 + 0.6 az8 = 0
 GC130: b9_5 = 1 -> 2 by9 + 0.6 ay9 <= -8
 GC131: b9_5 = 1 -> 2 bz9 + 0.6 az9 = 0
 GC132: b10_5 = 1 -> 2 by10 + 0.6 ay10 <= -8
 GC133: b10_5 = 1 -> 2 bz10 + 0.6 az10 = 0
 GC134: b11_5 = 1 -> 2 by11 + 0.6 ay11 <= -8
 GC135: b11_5 = 1 -> 2 bz11 + 0.6 az11 = 0
 GC136: b12_5 = 1 -> 2 by12 + 0.6 ay12 <= -8
 GC137: b12_5 = 1 -> 2 bz12 + 0.6 az12 = 0
 GC138: b13_5 = 1 -> 2 by13 + 0.6 ay13 <= -8
 GC139: b13_5 = 1 -> 2 bz13 + 0.6 az13 = 0
 GC140: b0_6 = 1 -> 2 by0 + 0.6 ay0 + 2 bz0 + 0.6 az0 = 0
 GC141: b0_6 = 1 -> 2 by0 + 0.6 ay0 <= -8
 GC142: b1_6 = 1 -> 2 by1 + 0.6 ay1 + 2 bz1 + 0.6 az1 = 0
 GC143: b1_6 = 1 -> 2 by1 + 0.6 ay1 <= -8
 GC144: b2_6 = 1 -> 2 by2 + 0.6 ay2 + 2 bz2 + 0.6 az2 = 0
 GC145: b2_6 = 1 -> 2 by2 + 0.6 ay2 <= -8
 GC146: b3_6 = 1 -> 2 by3 + 0.6 ay3 + 2 bz3 + 0.6 az3 = 0
 GC147: b3_6 = 1 -> 2 by3 + 0.6 ay3 <= -8
 GC148: b4_6 = 1 -> 2 by4 + 0.6 ay4 + 2 bz4 + 0.6 az4 = 0
 GC149: b4_6 = 1 -> 2 by4 + 0.6 ay4 <= -8
 GC150: b5_6 = 1 -> 2 by5 + 0.6 ay5 + 2 bz5 + 0.6 az5 = 0
 GC151: b5_6 = 1 -> 2 by5 + 0.6 ay5 <= -8
 GC152: b6_6 = 1 -> 2 by6 + 0.6 ay6 + 2 bz6 + 0.6 az6 = 0
 GC153: b6_6 = 1 -> 2 by6 + 0.6 ay6 <= -8
 GC154: b7_6 = 1 -> 2 by7 + 0.6 ay7 + 2 bz7 + 0.6 az7 = 0
 GC155: b7_6 = 1 -> 2 by7 + 0.6 ay7 <= -8
 GC156: b8_6 = 1 -> 2 by8 + 0.6 ay8 + 2 bz8 + 0.6 az8 = 0
 GC157: b8_6 = 1 -> 2 by8 + 0.6 ay8 <= -8
 GC158: b9_6 = 1 -> 2 by9 + 0.6 ay9 + 2 bz9 + 0.6 az9 = 0
 GC159: b9_6 = 1 -> 2 by9 + 0.6 ay9 <= -8
 GC160: b10_6 = 1 -> 2 by10 + 0.6 ay10 + 2 bz10 + 0.6 az10 = 0
 GC161: b10_6 = 1 -> 2 by10 + 0.6 ay10 <= -8
 GC162: b11_6 = 1 -> 2 by11 + 0.6 ay11 + 2 bz11 + 0.6 az11 = 0
 GC163: b11_6 = 1 -> 2 by11 + 0.6 ay11 <= -8
 GC164: b12_6 = 1 -> 2 by12 + 0.6 ay12 + 2 bz12 + 0.6 az12 = 0
 GC165: b12_6 = 1 -> 2 by12 + 0.6 ay12 <= -8
 GC166: b13_6 = 1 -> 2 by13 + 0.6 ay13 + 2 bz13 + 0.6 az13 = 0
 GC167: b13_6 = 1 -> 2 by13 + 0.6 ay13 <= -8
Bounds
 ax0 free
 ay0 free
 az0 free
 bx0 free
 by0 free
 bz0 free
 cx0 free
 cy0 free
 cz0 free
 dx0 free
 dy0 free
 dz0 free
 ax1 free
 ay1 free
 az1 free
 bx1 free
 by1 free
 bz1 free
 cx1 free
 cy1 free
 cz1 free
 dx1 free
 dy1 free
 dz1 free
 ax2 free
 ay2 free
 az2 free
 bx2 free
 by2 free
 bz2 free
 cx2 free
 cy2 free
 cz2 free
 dx2 free
 dy2 free
 dz2 free
 ax3 free
 ay3 free
 az3 free
 bx3 free
 by3 free
 bz3 free
 cx3 free
 cy3 free
 cz3 free
 dx3 free
 dy3 free
 dz3 free
 ax4 free
 ay4 free
 az4 free
 bx4 free
 by4 free
 bz4 free
 cx4 free
 cy4 free
 cz4 free
 dx4 free
 dy4 free
 dz4 free
 ax5 free
 ay5 free
 az5 free
 bx5 free
 by5 free
 bz5 free
 cx5 free
 cy5 free
 cz5 free
 dx5 free
 dy5 free
 dz5 free
 ax6 free
 ay6 free
 az6 free
 bx6 free
 by6 free
 bz6 free
 cx6 free
 cy6 free
 cz6 free
 dx6 free
 dy6 free
 dz6 free
 ax7 free
 ay7 free
 az7 free
 bx7 free
 by7 free
 bz7 free
 cx7 free
 cy7 free
 cz7 free
 dx7 free
 dy7 free
 dz7 free
 ax8 free
 ay8 free
 az8 free
 bx8 free
 by8 free
 bz8 free
 cx8 free
 cy8 free
 cz8 free
 dx8 free
 dy8 free
 dz8 free
 ax9 free
 ay9 free
 az9 free
 bx9 free
 by9 free
 bz9 free
 cx9 free
 cy9 free
 cz9 free
 dx9 free
 dy9 free
 dz9 free
 ax10 free
 ay10 free
 az10 free
 bx10 free
 by10 free
 bz10 free
 cx10 free
 cy10 free
 cz10 free
 dx10 free
 dy10 free
 dz10 free
 ax11 free
 ay11 free
 az11 free
 bx11 free
 by11 free
 bz11 free
 cx11 free
 cy11 free
 cz11 free
 dx11 free
 dy11 free
 dz11 free
 ax12 free
 ay12 free
 az12 free
 bx12 free
 by12 free
 bz12 free
 cx12 free
 cy12 free
 cz12 free
 dx12 free
 dy12 free
 dz12 free
 ax13 free
 ay13 free
 az13 free
 bx13 free
 by13 free
 bz13 free
 cx13 free
 cy13 free
 cz13 free
 dx13 free
 dy13 free
 dz13 free
 ax14 free
 ay14 free
 az14 free
 bx14 free
 by14 free
 bz14 free
 cx14 free
 cy14 free
 cz14 free
 dx14 free
 dy14 free
 dz14 free
 ax15 free
 ay15 free
 az15 free
 bx15 free
 by15 free
 bz15 free
 cx15 free
 cy15 free
 cz15 free
 dx15 free
 dy15 free
 dz15 free
Binaries
 b0_0 b0_1 b0_2 b0_3 b0_4 b0_5 b0_6 b1_0 b1_1 b1_2 b1_3 b1_4 b1_5 b1_6 b2_0
 b2_1 b2_2 b2_3 b2_4 b2_5 b2_6 b3_0 b3_1 b3_2 b3_3 b3_4 b3_5 b3_6 b4_0 b4_1
 b4_2 b4_3 b4_4 b4_5 b4_6 b5_0 b5_1 b5_2 b5_3 b5_4 b5_5 b5_6 b6_0 b6_1 b6_2
 b6_3 b6_4 b6_5 b6_6 b7_0 b7_1 b7_2 b7_3 b7_4 b7_5 b7_6 b8_0 b8_1 b8_2 b8_3
 b8_4 b8_5 b8_6 b9_0 b9_1 b9_2 b9_3 b9_4 b9_5 b9_6 b10_0 b10_1 b10_2 b10_3
 b10_4 b10_5 b10_6 b11_0 b11_1 b11_2 b11_3 b11_4 b11_5 b11_6 b12_0 b12_1
 b12_2 b12_3 b12_4 b12_5 b12_6 b13_0 b13_1 b13_2 b13_3 b13_4 b13_5 b13_6
End
